Gurobi Optimizer version 9.1.2 build v9.1.2rc0 (linux64)
Thread count: 36 physical cores, 72 logical processors, using up to 32 threads
Optimize a model with 12 rows, 57 columns and 590 nonzeros
Model fingerprint: 0xf32eec78
Model has 47 quadratic constraints
Coefficient statistics:
  Matrix range     [2e-05, 3e+00]
  QMatrix range    [1e+00, 1e+00]
  QLMatrix range   [1e+00, 1e+00]
  Objective range  [8e-03, 7e-01]
  Bounds range     [1e+00, 1e+00]
  RHS range        [1e+00, 1e+00]
Presolve removed 9 rows and 0 columns

Continuous model is non-convex -- solving as a MIP.

Presolve removed 9 rows and 0 columns
Presolve time: 0.00s
Presolved: 189 rows, 57 columns, 443 nonzeros
Presolved model has 47 bilinear constraint(s)
Variable types: 57 continuous, 0 integer (0 binary)

Root relaxation: objective -1.743721e+00, 44 iterations, 0.00 seconds

    Nodes    |    Current Node    |     Objective Bounds      |     Work
 Expl Unexpl |  Obj  Depth IntInf | Incumbent    BestBd   Gap | It/Node Time

     0     0   -1.74372    0   38          -   -1.74372      -     -    0s
H    0     0                       0.6147548   -1.74372   384%     -    0s
     0     0   -1.64739    0    1    0.61475   -1.64739   368%     -    0s
H    0     0                      -1.6450460   -1.64739  0.14%     -    0s
     0     0     cutoff    0        -1.64505   -1.64505  0.00%     -    0s

Cutting planes:
  RLT: 25
  BQP: 3

Explored 1 nodes (76 simplex iterations) in 0.01 seconds
Thread count was 32 (of 72 available processors)

Solution count 2: -1.64505 0.614755 
No other solutions better than -1.64505

Optimal solution found (tolerance 1.00e-04)
Best objective -1.645045978473e+00, best bound -1.645045978473e+00, gap 0.0000%

User-callback calls 78, time in user-callback 0.00 sec
Gurobi Optimizer version 9.1.2 build v9.1.2rc0 (linux64)
Thread count: 36 physical cores, 72 logical processors, using up to 32 threads
Optimize a model with 24 rows, 125 columns and 2580 nonzeros
Model fingerprint: 0x5f26c538
Model has 105 quadratic constraints
Coefficient statistics:
  Matrix range     [6e-06, 5e+01]
  QMatrix range    [1e+00, 1e+00]
  QLMatrix range   [1e+00, 1e+00]
  Objective range  [1e-02, 1e+00]
  Bounds range     [1e+00, 1e+00]
  RHS range        [1e+00, 1e+00]
Presolve removed 10 rows and 0 columns

Continuous model is non-convex -- solving as a MIP.

Presolve removed 10 rows and 0 columns
Presolve time: 0.00s
Presolved: 429 rows, 125 columns, 2142 nonzeros
Presolved model has 105 bilinear constraint(s)
Variable types: 125 continuous, 0 integer (0 binary)

Root relaxation: objective -5.241196e+00, 134 iterations, 0.00 seconds

    Nodes    |    Current Node    |     Objective Bounds      |     Work
 Expl Unexpl |  Obj  Depth IntInf | Incumbent    BestBd   Gap | It/Node Time

     0     0   -5.24120    0   95          -   -5.24120      -     -    0s
H    0     0                       0.2208662   -5.24120  2473%     -    0s
     0     0   -4.26550    0   83    0.22087   -4.26550  2031%     -    0s
H    0     0                      -2.1896520   -4.26550  94.8%     -    0s
     0     0   -4.24575    0   72   -2.18965   -4.24575  93.9%     -    0s
     0     0   -4.11235    0   66   -2.18965   -4.11235  87.8%     -    0s
H    0     0                      -2.2678642   -4.11235  81.3%     -    0s
     0     0   -4.10578    0   66   -2.26786   -4.10578  81.0%     -    0s
     0     0   -4.07626    0   59   -2.26786   -4.07626  79.7%     -    0s
     0     0   -4.07300    0   59   -2.26786   -4.07300  79.6%     -    0s
     0     0   -4.06558    0   59   -2.26786   -4.06558  79.3%     -    0s
     0     0   -4.06488    0   59   -2.26786   -4.06488  79.2%     -    0s
     0     0   -4.05982    0   59   -2.26786   -4.05982  79.0%     -    0s
     0     0   -4.05835    0   59   -2.26786   -4.05835  79.0%     -    0s
     0     0   -4.05817    0   59   -2.26786   -4.05817  78.9%     -    0s
     0     0   -4.05780    0   59   -2.26786   -4.05780  78.9%     -    0s
H    0     0                      -2.8319121   -4.05780  43.3%     -    0s
H    0     0                      -3.2307692   -4.05780  25.6%     -    0s
H    0     0                      -3.3085266   -4.05780  22.6%     -    0s
     0     2   -4.05780    0   59   -3.30853   -4.05780  22.6%     -    0s
*  524   157              20      -3.3509572   -3.66759  9.45%  27.9    0s
*  662   107              20      -3.3550940   -3.66759  9.31%  24.8    0s
*  767   107              23      -3.3566849   -3.66759  9.26%  23.7    0s
*  801   107              19      -3.3648836   -3.66759  9.00%  23.2    0s
*  967    68              19      -3.3648942   -3.55926  5.78%  21.6    0s
* 1053    99              21      -3.3656509   -3.48394  3.51%  20.9    0s
* 1057    99              23      -3.3657836   -3.48394  3.51%  20.9    0s
* 1104    99              22      -3.3707905   -3.48394  3.36%  20.2    0s
* 1106    99              23      -3.3717657   -3.48394  3.33%  20.1    0s
* 1111    99              21      -3.3730667   -3.48394  3.29%  20.1    0s
* 1190   244              24      -3.3880913   -3.48394  2.83%  19.3    0s
* 1193   244              26      -3.3882786   -3.48394  2.82%  19.3    0s
* 1196   244              28      -3.3882870   -3.48394  2.82%  19.2    0s
* 1432   272              28      -3.3882874   -3.48394  2.82%  17.4    0s
* 1485   272              27      -3.4241511   -3.48394  1.75%  17.0    0s
* 1669   117              22      -3.4270763   -3.45907  0.93%  15.6    0s
* 1670   117              23      -3.4276494   -3.45907  0.92%  15.6    0s
* 1908   117              21      -3.4278380   -3.45907  0.91%  14.2    0s
* 1941    50              22      -3.4284822   -3.45907  0.89%  14.0    0s
* 1968    50              20      -3.4286965   -3.45907  0.89%  13.9    0s
* 1969    50              20      -3.4286986   -3.45907  0.89%  13.9    0s
* 2012    50              16      -3.4287103   -3.45907  0.89%  13.7    0s
* 2114    70              20      -3.4297606   -3.43477  0.15%  13.1    0s

Cutting planes:
  RLT: 45
  BQP: 12
  PSD: 24

Explored 2297 nodes (28606 simplex iterations) in 0.69 seconds
Thread count was 32 (of 72 available processors)

Solution count 10: -3.42976 -3.42871 -3.4287 ... -3.38829

Optimal solution found (tolerance 1.00e-04)
Best objective -3.429760605309e+00, best bound -3.429770115418e+00, gap 0.0003%

User-callback calls 4889, time in user-callback 0.00 sec



objective value: -3.429760605308689
objective bound: -3.4297701154180738
x_opt: [0.0, 0.0, 1.0, 0.0, 1.0, 0.6715537332668601, 1.0, 1.0, 1.0, 0.0, 0.0, 0.19782179686111823, 6.734129461734696e-7, 0.0, 0.0, 0.4940540727710973, 0.0, 0.0, 0.005517631007263844, 0.0]
GUROBI solution time: 0.6857278347015381




